6 5 3 11 8 7 1 12 8 15 5 5 5 7 1 4 3 7 7 7 2 1 4 17 14 13 6 17 13 21 11 11 11 13 7 2 5 13 12 12 4 5 16 13 12 6 16 12 21 10 10 11 12 6 3 5 12 11 11 4 13 11 10 3 15 11 18 8 8 8 9 5 2 0 10 10 10 1 4 6 11 8 8 6 7 7 6 4 11 15 13 8 8 8 13 1 8 5 4 7 3 3 3 3 8 12 11 3 3 3 10 7 5 3 8 2 2 2 3 7 11 10 2 2 2 9 12 8 15 5 5 5 6 2 4 3 7 7 7 2 4 6 7 7 7 8 11 16 15 5 5 5 14 9 3 4 4 6 7 12 11 1 1 1 10 10 10 10 9 15 19 18 9 10 10 17 0 1 3 5 9 8 3 2 2 7 1 3 4 9 8 3 2 2 7 2 5 9 8 3 3 3 7 7 10 9 5 5 5 8 5 5 6 5 5 3 2 11 10 10 2 10 10 10 2 1 1 9 0 9 9 